30
5
90127
0
0
54 54 53 55 34
1
0
49 55 58 52 35
2
0
49 55 51 50 35
3
0
52 58 53 55 32
4
0
54 54 54 54 30
5
0
55 58 54 57 32
6
0
56 51 60 56 34
7
0
52 54 59 53 34
8
0
52 55 56 54 33
9
0
54 54 59 56 34
10
0
55 54 54 53 34
11
0
55 55 60 55 34
12
0
51 56 52 53 36
13
0
52 52 54 48 34
14
0
54 55 54 52 31
15
0
54 50 51 56 33
16
0
53 56 56 54 33
17
0
51 49 53 52 31
18
0
52 51 53 55 32
19
0
54 51 55 56 33
20
0
52 51 52 50 33
21
0
52 53 56 52 30
22
0
54 55 58 51 34
23
0
56 55 59 55 34
24
0
55 53 59 52 33
25
0
53 53 55 48 35
26
0
54 53 54 56 32
27
0
51 55 53 53 32
28
0
52 52 53 59 32
29
0
52 59 54 53 35
